RT is False
Default write of storage_offers_DA.csv just to have a file (but constraint should be inactive)
Reading model...
...model read.
creating competitive generators file...
...competitive generators recorded.
Loading data...
.. day-ahead data with real-time VRE data read.
Compiling instance...
...instance created.
Creating Offer Mitigation (model will solve as dispatch if TRUE)...
Solving...

Welcome to IBM(R) ILOG(R) CPLEX(R) Interactive Optimizer 12.9.0.0
  with Simplex, Mixed Integer & Barrier Optimizers
5725-A06 5725-A29 5724-Y48 5724-Y49 5724-Y54 5724-Y55 5655-Y21
Copyright IBM Corp. 1988, 2019.  All Rights Reserved.

Type 'help' for a list of available commands.
Type 'help' followed by a command name for more
information on commands.

CPLEX> Logfile 'cplex.log' closed.
Logfile 'C:\Users\llavin\Desktop\test919\logs\tmpo3rm8h9z.cplex.log' open.
CPLEX> New value for parallel optimization mode: -1
CPLEX> New value for mixed integer optimality gap tolerance: 0.01
CPLEX> New value for integrality tolerance: 1e-09
CPLEX> New value for feasibility tolerance: 0.01
CPLEX> New value for deterministic time limit in ticks: 75000
CPLEX> Problem 'C:\Users\llavin\Desktop\test919\logs\tmpi9dwemv0.pyomo.lp' read.
Read time = 0.06 sec. (3.04 ticks)
CPLEX> Problem name         : C:\Users\llavin\Desktop\test919\logs\tmpi9dwemv0.pyomo.lp
Objective sense      : Minimize
Variables            :   26081  [Nneg: 1,  Box: 21616,  Free: 4464]
Objective nonzeros   :    2496
Linear constraints   :   27515  [Less: 14006,  Greater: 4416,  Equal: 9093]
  Nonzeros           :   89267
  RHS nonzeros       :   12271

Variables            : Min LB: -5000.000        Max UB: 1000000.       
Objective nonzeros   : Min   : 15.73158         Max   : 124.0997       
Linear constraints   :
  Nonzeros           : Min   : 0.8500000        Max   : 3000.000       
  RHS nonzeros       : Min   : 0.2250000        Max   : 5000.000       
CPLEX> CPXPARAM_Parallel                                -1
CPXPARAM_Simplex_Tolerances_Feasibility          0.01
CPXPARAM_DetTimeLimit                            75000
CPXPARAM_MIP_Tolerances_MIPGap                   0.01
CPXPARAM_MIP_Tolerances_Integrality              1.0000000000000001e-09
Parallel mode: opportunistic, using up to 32 threads for concurrent optimization.
Tried aggregator 1 time.
LP Presolve eliminated 21353 rows and 15463 columns.
Aggregator did 773 substitutions.
Reduced LP has 5389 rows, 9845 columns, and 31806 nonzeros.
Presolve time = 0.06 sec. (30.45 ticks)
Symmetry aggregator did 5563 additional substitutions.

Iteration log . . .
Iteration:     1   Dual objective     =             0.000000
Perturbation started.
Iteration:   101   Dual objective     =             0.000000
Iteration:   335   Dual objective     =             1.229895
Iteration:   593   Dual objective     =             1.753815
Iteration:   851   Dual objective     =             1.891334
Iteration:  1067   Dual objective     =             2.005238
Iteration:  1336   Dual objective     =             2.051524
Iteration:  1578   Dual objective     =             2.079208
Iteration:  1801   Dual objective     =             2.100931
Iteration:  1992   Dual objective     =         50089.499791
Iteration:  2188   Dual objective     =         83252.390939
Iteration:  2431   Dual objective     =         99180.756531
Iteration:  2680   Dual objective     =        106513.399096
Iteration:  3040   Dual objective     =        107295.399917
Removing perturbation.

Dual crossover.
  Dual:  Fixing 5 variables.
Using devex.

Primal simplex solved model.


Primal simplex - Optimal:  Objective =  1.0729323780e+05
Solution time =    0.17 sec.  Iterations = 1627 (1041)
Deterministic time = 82.41 ticks  (479.11 ticks/sec)

CPLEX> Solution written to file 'C:\Users\llavin\Desktop\test919\logs\tmpsxypst18.cplex.sol'.
CPLEX> Exporting results... 
...storage offer mitigation file created
Converting model to MPEC...
...converted
NOTE: initial MIP solve with only storage competitive to get feasible solution
Solving...

Welcome to IBM(R) ILOG(R) CPLEX(R) Interactive Optimizer 12.9.0.0
  with Simplex, Mixed Integer & Barrier Optimizers
5725-A06 5725-A29 5724-Y48 5724-Y49 5724-Y54 5724-Y55 5655-Y21
Copyright IBM Corp. 1988, 2019.  All Rights Reserved.

Type 'help' for a list of available commands.
Type 'help' followed by a command name for more
information on commands.

CPLEX> Logfile 'cplex.log' closed.
Logfile 'C:\Users\llavin\Desktop\test919\logs\tmpfcl_17u4.cplex.log' open.
CPLEX> New value for parallel optimization mode: -1
CPLEX> New value for mixed integer optimality gap tolerance: 0.01
CPLEX> New value for integrality tolerance: 1e-09
CPLEX> New value for feasibility tolerance: 0.01
CPLEX> New value for deterministic time limit in ticks: 75000
CPLEX> Problem 'C:\Users\llavin\Desktop\test919\logs\tmp6bybao83.pyomo.lp' read.
Read time = 0.25 sec. (14.78 ticks)
CPLEX> Problem name         : C:\Users\llavin\Desktop\test919\logs\tmp6bybao83.pyomo.lp
Objective sense      : Maximize
Variables            :   53805  [Nneg: 1,  Box: 22000,  Free: 4464,
                                 Binary: 27340]
Objective nonzeros   :    8980
Linear constraints   :  123205  [Less: 41346,  Greater: 59096,  Equal: 22763]
  Nonzeros           :  291801
  RHS nonzeros       :   67435

Variables            : Min LB: -5000.000        Max UB: 1000000.       
Objective nonzeros   : Min   : 0.2250000        Max   : 745.8417       
Linear constraints   :
  Nonzeros           : Min   : 0.2250000        Max   : 1000000.       
  RHS nonzeros       : Min   : 0.2250000        Max   : 1000000.       
CPLEX> CPXPARAM_Parallel                                -1
CPXPARAM_Simplex_Tolerances_Feasibility          0.01
CPXPARAM_DetTimeLimit                            75000
CPXPARAM_MIP_Tolerances_MIPGap                   0.01
CPXPARAM_MIP_Tolerances_Integrality              1.0000000000000001e-09
Tried aggregator 3 times.
MIP Presolve eliminated 88635 rows and 18935 columns.
MIP Presolve added 3379 rows and 0 columns.
MIP Presolve modified 24897 coefficients.
Aggregator did 12996 substitutions.
Reduced MIP has 24953 rows, 21318 columns, and 71184 nonzeros.
Reduced MIP has 8412 binaries, 0 generals, 0 SOSs, and 0 indicators.
Presolve time = 0.30 sec. (173.78 ticks)
Probing fixed 386 vars, tightened 2817 bounds.
Probing time = 1.19 sec. (879.99 ticks)
Tried aggregator 2 times.
MIP Presolve eliminated 873 rows and 775 columns.
MIP Presolve modified 2192 coefficients.
Aggregator did 39 substitutions.
Reduced MIP has 24041 rows, 20504 columns, and 68541 nonzeros.
Reduced MIP has 8025 binaries, 0 generals, 0 SOSs, and 0 indicators.
Presolve time = 0.11 sec. (68.04 ticks)
Probing time = 0.03 sec. (15.99 ticks)
Clique table members: 6515.
MIP emphasis: balance optimality and feasibility.
MIP search method: dynamic search.
Parallel mode: opportunistic, using up to 32 threads.
Root relaxation solution time = 0.38 sec. (289.17 ticks)

        Nodes                                         Cuts/
   Node  Left     Objective  IInf  Best Integer    Best Bound    ItCnt     Gap

      0     0     7911.0909  1700                   7911.0909     7054         
      0     0     7911.0909    29                    Cuts: 25     7064         
      0     0     7911.0909    30                Flowcuts: 17     7069         
      0     0     7911.0909    33                Flowcuts: 12     7071         
      0     2     7911.0909    14                 Impl Bds: 1     7071         
Elapsed time = 10.14 sec. (6525.72 ticks, tree = 0.02 MB, solutions = 0)
    643   196    infeasible                         7906.0521     8745         
*   945   512      integral     0     7835.3872     7906.0521    16637    0.90%
*   949   488      integral     0     7841.9762     7906.0521    14663    0.82%
   1241   538     7832.0143     8     7841.9762     7906.0521    17719    0.82%

Cover cuts applied:  1
Implied bound cuts applied:  2
Flow cuts applied:  12
Gomory fractional cuts applied:  6

Root node processing (before b&c):
  Real time             =    8.69 sec. (6493.61 ticks)
Parallel b&c, 32 threads:
  Real time             =    3.94 sec. (698.67 ticks)
  Sync time (average)   =    0.35 sec.
  Wait time (average)   =    0.00 sec.
                          ------------
Total (root+branch&cut) =   12.63 sec. (7192.28 ticks)

Solution pool: 2 solutions saved.

MIP - Integer optimal, tolerance (0.01/1e-06):  Objective =  7.8419762380e+03
Current MIP best bound =  7.9060521156e+03 (gap = 64.0759, 0.82%)
Solution time =   12.67 sec.  Iterations = 23799  Nodes = 1243 (180)
Deterministic time = 7192.43 ticks  (567.58 ticks/sec)

CPLEX> Incumbent solution written to file 'C:\Users\llavin\Desktop\test919\logs\tmpfccao6vv.cplex.sol'.
CPLEX> NOTE: no warmstart specified for MIP iteration, default behavior is true
NOTE: resolving with all competitive generators using storage-only solution to warmstart
Solving...

Welcome to IBM(R) ILOG(R) CPLEX(R) Interactive Optimizer 12.9.0.0
  with Simplex, Mixed Integer & Barrier Optimizers
5725-A06 5725-A29 5724-Y48 5724-Y49 5724-Y54 5724-Y55 5655-Y21
Copyright IBM Corp. 1988, 2019.  All Rights Reserved.

Type 'help' for a list of available commands.
Type 'help' followed by a command name for more
information on commands.

CPLEX> Logfile 'cplex.log' closed.
Logfile 'C:\Users\llavin\Desktop\test919\logs\tmpyahcw5co.cplex.log' open.
CPLEX> New value for parallel optimization mode: -1
CPLEX> New value for mixed integer optimality gap tolerance: 0.01
CPLEX> New value for integrality tolerance: 1e-09
CPLEX> New value for feasibility tolerance: 0.01
CPLEX> New value for deterministic time limit in ticks: 75000
CPLEX> Problem 'C:\Users\llavin\Desktop\test919\logs\tmp75hc_qex.pyomo.lp' read.
Read time = 0.27 sec. (14.81 ticks)
CPLEX> MIP start file 'C:\Users\llavin\Desktop\test919\logs\tmpw8uk_acd.cplex.mst' read.
CPLEX> Problem name         : C:\Users\llavin\Desktop\test919\logs\tmp75hc_qex.pyomo.lp
Objective sense      : Maximize
Variables            :   54525  [Nneg: 1,  Box: 22720,  Free: 4464,
                                 Binary: 27340]
Objective nonzeros   :    9700
Linear constraints   :  123205  [Less: 41346,  Greater: 59096,  Equal: 22763]
  Nonzeros           :  291801
  RHS nonzeros       :   67435

Variables            : Min LB: -5000.000        Max UB: 1000000.       
Objective nonzeros   : Min   : 0.2250000        Max   : 745.8417       
Linear constraints   :
  Nonzeros           : Min   : 0.2250000        Max   : 1000000.       
  RHS nonzeros       : Min   : 0.2250000        Max   : 1000000.       
CPLEX> CPXPARAM_Parallel                                -1
CPXPARAM_Simplex_Tolerances_Feasibility          0.01
CPXPARAM_DetTimeLimit                            75000
CPXPARAM_MIP_Tolerances_MIPGap                   0.01
CPXPARAM_MIP_Tolerances_Integrality              1.0000000000000001e-09
Warning:  No solution found from 1 MIP starts.
Retaining values of one MIP start for possible repair.
Tried aggregator 3 times.
MIP Presolve eliminated 88635 rows and 19655 columns.
MIP Presolve added 3379 rows and 0 columns.
MIP Presolve modified 24897 coefficients.
Aggregator did 12996 substitutions.
Reduced MIP has 24953 rows, 21318 columns, and 71184 nonzeros.
Reduced MIP has 8412 binaries, 0 generals, 0 SOSs, and 0 indicators.
Presolve time = 0.30 sec. (174.14 ticks)
Probing fixed 386 vars, tightened 2817 bounds.
Probing time = 1.20 sec. (879.99 ticks)
Tried aggregator 2 times.
MIP Presolve eliminated 873 rows and 775 columns.
MIP Presolve modified 2192 coefficients.
Aggregator did 39 substitutions.
Reduced MIP has 24041 rows, 20504 columns, and 68541 nonzeros.
Reduced MIP has 8025 binaries, 0 generals, 0 SOSs, and 0 indicators.
Presolve time = 0.11 sec. (68.04 ticks)
Probing time = 0.05 sec. (15.99 ticks)
Clique table members: 6515.
MIP emphasis: balance optimality and feasibility.
MIP search method: dynamic search.
Parallel mode: opportunistic, using up to 32 threads.
Root relaxation solution time = 0.38 sec. (289.17 ticks)

        Nodes                                         Cuts/
   Node  Left     Objective  IInf  Best Integer    Best Bound    ItCnt     Gap

      0     0     7911.0909  1700                   7911.0909     7054         
      0     0     7911.0909    29                    Cuts: 25     7064         
      0     0     7911.0909    30                Flowcuts: 17     7069         
      0     0     7911.0909    33                Flowcuts: 12     7071         
Repair heuristic found nothing.
      0     2     7911.0909    14                 Impl Bds: 1     7071         
Elapsed time = 10.64 sec. (6630.92 ticks, tree = 0.02 MB, solutions = 0)
*    92+  144                         7527.9086     7906.0521             5.02%
*   290   131      integral     0     7846.5479     7906.0521     8692    0.76%
*   415   136      integral     0     7886.9966     7906.0521     8616    0.24%
*   507   141      integral     0     7894.7190     7906.0521     8585    0.14%
*   563   135      integral     0     7894.7190     7906.0521     8613    0.14%

Cover cuts applied:  1
Implied bound cuts applied:  2
Flow cuts applied:  14
Gomory fractional cuts applied:  8

Root node processing (before b&c):
  Real time             =    9.13 sec. (6602.92 ticks)
Parallel b&c, 32 threads:
  Real time             =    2.92 sec. (410.88 ticks)
  Sync time (average)   =    0.45 sec.
  Wait time (average)   =    0.00 sec.
                          ------------
Total (root+branch&cut) =   12.05 sec. (7013.79 ticks)

Solution pool: 12 solutions saved.

MIP - Integer optimal, tolerance (0.01/1e-06):  Objective =  7.8947190271e+03
Current MIP best bound =  7.9060521156e+03 (gap = 11.3331, 0.14%)
Solution time =   12.06 sec.  Iterations = 10849  Nodes = 673 (38)
Deterministic time = 7013.95 ticks  (581.49 ticks/sec)

CPLEX> Incumbent solution written to file 'C:\Users\llavin\Desktop\test919\logs\tmpd8oihhdo.cplex.sol'.
CPLEX> Exporting results... 
